(set-logic QF_SLAH)

(declare-datatypes ((data_t 0)) (((c_data_t (sz Int)))))

(declare-heap (Int data_t))

(define-fun hck ((?x Int) (?y Int) (?v Int)) Bool
	(and
		(>= (- ?y ?x) 2) (<= (- ?y ?x) ?v)
		(sep (pto ?x (c_data_t (- ?y ?x))) (blk (+ ?x 1) ?y))
))

(define-fun-rec hls ((?x Int) (?y Int) (?v Int)) Bool
	(or
		(and (= ?x ?y) (_ emp Int data_t))
		(exists ((?w Int)) (sep (hck ?x ?w ?v) (hls ?w ?y ?v)))
))

(declare-const x0 Int)
(declare-const x1 Int)
(declare-const v0 Int)
(declare-const x2 Int)
(declare-const x3 Int)
(declare-const v2 Int)
(declare-const x4 Int)
(declare-const x5 Int)
(declare-const v4 Int)
(declare-const x6 Int)
(declare-const x7 Int)
(declare-const x8 Int)
(declare-const x9 Int)
(declare-const x10 Int)
(declare-const x11 Int)
(declare-const x12 Int)
(declare-const x13 Int)
(declare-const v12 Int)
(declare-const x14 Int)
(declare-const x15 Int)
(declare-const x16 Int)
(declare-const x17 Int)
(declare-const v16 Int)
(declare-const x18 Int)
(declare-const x19 Int)
(declare-const x20 Int)
(declare-const x21 Int)
(declare-const v20 Int)
(declare-const x22 Int)
(declare-const x23 Int)
(declare-const x24 Int)
(declare-const x25 Int)
(declare-const x26 Int)
(declare-const x27 Int)
(declare-const v26 Int)
(declare-const x28 Int)
(declare-const x29 Int)
(declare-const x30 Int)
(declare-const x31 Int)
(declare-const x32 Int)
(declare-const x33 Int)
(declare-const x34 Int)
(declare-const x35 Int)
(declare-const v34 Int)
(declare-const x36 Int)
(declare-const x37 Int)
(declare-const v36 Int)
(declare-const x38 Int)
(declare-const x39 Int)
(declare-const v38 Int)
(declare-const x40 Int)
(declare-const x41 Int)
(declare-const x42 Int)
(declare-const x43 Int)
(declare-const x44 Int)
(declare-const x45 Int)
(declare-const x46 Int)
(declare-const x47 Int)
(declare-const x48 Int)
(declare-const x49 Int)
(declare-const x50 Int)
(declare-const x51 Int)
(declare-const x52 Int)
(declare-const x53 Int)
(declare-const x54 Int)
(declare-const x55 Int)
(declare-const x56 Int)
(declare-const x57 Int)
(declare-const v56 Int)
(declare-const x58 Int)
(declare-const x59 Int)
(declare-const x60 Int)
(declare-const x61 Int)
(declare-const x62 Int)
(declare-const x63 Int)
(declare-const x64 Int)
(declare-const x65 Int)
(declare-const v64 Int)
(declare-const x66 Int)
(declare-const x67 Int)
(declare-const x68 Int)
(declare-const x69 Int)
(declare-const x70 Int)
(declare-const x71 Int)
(declare-const v70 Int)
(declare-const x72 Int)
(declare-const x73 Int)
(declare-const x74 Int)
(declare-const x75 Int)
(declare-const v74 Int)
(declare-const x76 Int)
(declare-const x77 Int)
(declare-const v76 Int)
(declare-const x78 Int)
(declare-const x79 Int)
(declare-const x80 Int)
(declare-const x81 Int)
(declare-const x82 Int)
(declare-const x83 Int)
(declare-const v82 Int)
(declare-const x84 Int)
(declare-const x85 Int)
(declare-const x86 Int)
(declare-const x87 Int)
(declare-const x88 Int)
(declare-const x89 Int)
(declare-const x90 Int)
(declare-const x91 Int)
(declare-const x92 Int)
(declare-const x93 Int)
(declare-const x94 Int)
(declare-const x95 Int)
(declare-const v94 Int)
(declare-const x96 Int)
(declare-const x97 Int)
(declare-const x98 Int)
(declare-const x99 Int)
(declare-const v98 Int)

(assert(and
(distinct x93 x81) (< x15 x7) (= x44 x94) (< x16 x97) (distinct x60 x82) (distinct x91 x85) (< x70 x64) (distinct x43 x30) (= x54 x23) 
(sep
(hls x0 x1 v0)
(hls x2 x3 v2)
(hls x4 x5 v4)
(pto x6 (c_data_t x7))
(blk x8 x9)
(pto x10 (c_data_t x11))
(hls x12 x13 v12)
(pto x14 (c_data_t x15))
(hls x16 x17 v16)
(blk x18 x19)
(hls x20 x21 v20)
(pto x22 (c_data_t x23))
(pto x24 (c_data_t x25))
(hls x26 x27 v26)
(blk x28 x29)
(pto x30 (c_data_t x31))
(blk x32 x33)
(hls x34 x35 v34)
(hls x36 x37 v36)
(hls x38 x39 v38)
(pto x40 (c_data_t x41))
(pto x42 (c_data_t x43))
(pto x44 (c_data_t x45))
(pto x46 (c_data_t x47))
(pto x48 (c_data_t x49))
(pto x50 (c_data_t x51))
(blk x52 x53)
(blk x54 x55)
(hls x56 x57 v56)
(pto x58 (c_data_t x59))
(blk x60 x61)
(pto x62 (c_data_t x63))
(hls x64 x65 v64)
(pto x66 (c_data_t x67))
(pto x68 (c_data_t x69))
(hls x70 x71 v70)
(blk x72 x73)
(hls x74 x75 v74)
(hls x76 x77 v76)
(pto x78 (c_data_t x79))
(blk x80 x81)
(hls x82 x83 v82)
(blk x84 x85)
(blk x86 x87)
(blk x88 x89)
(blk x90 x91)
(pto x92 (c_data_t x93))
(hls x94 x95 v94)
(blk x96 x97)
(hls x98 x99 v98)
)))

(check-sat)